1	1
2	1
3	1
4	2
5	2
6	1
7	1
8	1
9	2
10	5
11	1
12	2
13	1
14	5
15	2
16	2
17	2
18	1
19	2
20	1
21	2
22	2
23	5
24	2
25	2
26	1
27	1
28	1
29	1
30	2
31	1
32	5
33	7
34	2
35	1
36	2
37	3
38	2
39	2
40	4
41	2
42	1
43	1
44	1
45	2
46	2
47	1
48	1
49	1
50	1
51	2
52	2
53	2
54	1
55	5
56	2
57	5
58	5
59	2
60	2
61	6
62	2
